TCS_Benchmarks/redos_fix/corpus1_output_distinct_2423_2422_24_0.txt
(\S+)(\S+)
(\S+)([^!<|^>]\s*(=+)\s*)(\S+)